(declare-fun T_1 () Bool)
(declare-fun T_10 () Bool)
(declare-fun T_11 () Bool)
(declare-fun T_12 () Bool)
(declare-fun T_13 () Bool)
(declare-fun T_14 () Bool)
(declare-fun T_15 () Bool)
(declare-fun T_16 () Bool)
(declare-fun T_17 () Bool)
(declare-fun T_18 () Bool)
(declare-fun T_19 () Bool)
(declare-fun T_1a () Bool)
(declare-fun T_1b () Bool)
(declare-fun T_1c () Bool)
(declare-fun T_1d () Bool)
(declare-fun T_1e () Bool)
(declare-fun T_1f () Bool)
(declare-fun T_2 () Bool)
(declare-fun T_20 () Bool)
(declare-fun T_21 () Bool)
(declare-fun T_22 () Bool)
(declare-fun T_23 () Bool)
(declare-fun T_24 () Bool)
(declare-fun T_25 () Bool)
(declare-fun T_26 () Bool)
(declare-fun T_27 () Bool)
(declare-fun T_28 () Bool)
(declare-fun T_29 () Bool)
(declare-fun T_2a () Bool)
(declare-fun T_2b () Bool)
(declare-fun T_2c () Bool)
(declare-fun T_2d () Bool)
(declare-fun T_2e () Bool)
(declare-fun T_2f () Bool)
(declare-fun T_3 () Bool)
(declare-fun T_30 () Bool)
(declare-fun T_31 () Bool)
(declare-fun T_32 () Bool)
(declare-fun T_33 () Bool)
(declare-fun T_34 () Bool)
(declare-fun T_35 () Bool)
(declare-fun T_36 () Bool)
(declare-fun T_37 () Bool)
(declare-fun T_38 () Bool)
(declare-fun T_39 () Bool)
(declare-fun T_3a () Bool)
(declare-fun T_3b () Bool)
(declare-fun T_3c () Bool)
(declare-fun T_3d () Bool)
(declare-fun T_3e () Bool)
(declare-fun T_3f () Bool)
(declare-fun T_4 () Bool)
(declare-fun T_40 () Bool)
(declare-fun T_41 () Bool)
(declare-fun T_42 () Bool)
(declare-fun T_43 () Bool)
(declare-fun T_44 () Bool)
(declare-fun T_45 () Bool)
(declare-fun T_46 () Bool)
(declare-fun T_47 () Bool)
(declare-fun T_48 () Bool)
(declare-fun T_49 () Bool)
(declare-fun T_4a () Bool)
(declare-fun T_4b () Bool)
(declare-fun T_4c () Bool)
(declare-fun T_4d () Bool)
(declare-fun T_4e () Bool)
(declare-fun T_4f () Bool)
(declare-fun T_5 () Bool)
(declare-fun T_50 () Bool)
(declare-fun T_51 () Bool)
(declare-fun T_52 () Bool)
(declare-fun T_53 () Bool)
(declare-fun T_54 () Bool)
(declare-fun T_55 () Bool)
(declare-fun T_56 () Bool)
(declare-fun T_57 () Bool)
(declare-fun T_58 () Bool)
(declare-fun T_59 () Bool)
(declare-fun T_5a () Bool)
(declare-fun T_5b () Bool)
(declare-fun T_5c () Bool)
(declare-fun T_5d () Bool)
(declare-fun T_5e () Bool)
(declare-fun T_5f () Bool)
(declare-fun T_6 () Bool)
(declare-fun T_60 () Bool)
(declare-fun T_61 () Bool)
(declare-fun T_62 () Bool)
(declare-fun T_63 () Bool)
(declare-fun T_64 () Bool)
(declare-fun T_65 () Bool)
(declare-fun T_66 () Bool)
(declare-fun T_67 () Bool)
(declare-fun T_68 () Bool)
(declare-fun T_69 () Bool)
(declare-fun T_6a () Bool)
(declare-fun T_6b () Bool)
(declare-fun T_6c () Bool)
(declare-fun T_6d () Bool)
(declare-fun T_6e () Bool)
(declare-fun T_6f () Bool)
(declare-fun T_7 () Bool)
(declare-fun T_70 () Bool)
(declare-fun T_8 () Bool)
(declare-fun T_9 () Bool)
(declare-fun T_a () Bool)
(declare-fun T_b () Bool)
(declare-fun T_c () Bool)
(declare-fun T_d () Bool)
(declare-fun T_e () Bool)
(declare-fun T_f () Bool)
(declare-fun var_0xINPUT_169289 () String)
(assert (= T_1 (not (= "" var_0xINPUT_169289))))
(assert T_1)
(assert (= T_2 (not (= "" var_0xINPUT_169289))))
(assert T_2)
(assert (= T_3 (not (= "6JX7G3VKFq" var_0xINPUT_169289))))
(assert T_3)
(assert (= T_4 (not (= var_0xINPUT_169289 "6JX7G3VKFq"))))
(assert T_4)
(assert (= T_5 (= var_0xINPUT_169289 "")))
(assert (= T_6 (not T_5)))
(assert T_6)
(assert (= T_7 (not (= "" var_0xINPUT_169289))))
(assert T_7)
(assert (= T_8 (not (= var_0xINPUT_169289 "6JX7G3VKFq"))))
(assert T_8)
(assert (= T_9 (not (= "6JX7G3VKFq" var_0xINPUT_169289))))
(assert T_9)
(assert (= T_a (= var_0xINPUT_169289 "")))
(assert (= T_b (not T_a)))
(assert T_b)
(assert (= T_c (not (= "" var_0xINPUT_169289))))
(assert T_c)
(assert (= T_d (not (= "6JX7G3VKFq" var_0xINPUT_169289))))
(assert T_d)
(assert (= T_e (not (= var_0xINPUT_169289 "6JX7G3VKFq"))))
(assert T_e)
(assert (= T_f (= var_0xINPUT_169289 "")))
(assert (= T_10 (not T_f)))
(assert T_10)
(assert (= T_11 (not (= "" var_0xINPUT_169289))))
(assert T_11)
(assert (= T_12 (not (= "" var_0xINPUT_169289))))
(assert T_12)
(assert (= T_13 (not (= var_0xINPUT_169289 ""))))
(assert T_13)
(assert (= T_14 (= var_0xINPUT_169289 "")))
(assert (= T_15 (not T_14)))
(assert T_15)
(assert (= T_16 (not (= "" var_0xINPUT_169289))))
(assert T_16)
(assert (= T_17 (not (= "" var_0xINPUT_169289))))
(assert T_17)
(assert (= T_18 (not (= var_0xINPUT_169289 ""))))
(assert T_18)
(assert (= T_19 (= var_0xINPUT_169289 "")))
(assert (= T_1a (not T_19)))
(assert T_1a)
(assert (= T_1b (not (= "" var_0xINPUT_169289))))
(assert T_1b)
(assert (= T_1c (not (= "" var_0xINPUT_169289))))
(assert T_1c)
(assert (= T_1d (not (= var_0xINPUT_169289 ""))))
(assert T_1d)
(assert (= T_1e (= var_0xINPUT_169289 "")))
(assert (= T_1f (not T_1e)))
(assert T_1f)
(assert (= T_20 (not (= "" var_0xINPUT_169289))))
(assert T_20)
(assert (= T_21 (not (= var_0xINPUT_169289 ""))))
(assert T_21)
(assert (= T_22 (not (= "" var_0xINPUT_169289))))
(assert T_22)
(assert (= T_23 (= var_0xINPUT_169289 "")))
(assert (= T_24 (not T_23)))
(assert T_24)
(assert (= T_25 (not (= "" var_0xINPUT_169289))))
(assert T_25)
(assert (= T_26 (not (= var_0xINPUT_169289 ""))))
(assert T_26)
(assert (= T_27 (not (= "" var_0xINPUT_169289))))
(assert T_27)
(assert (= T_28 (= var_0xINPUT_169289 "")))
(assert (= T_29 (not T_28)))
(assert T_29)
(assert (= T_2a (not (= "" var_0xINPUT_169289))))
(assert T_2a)
(assert (= T_2b (not (= var_0xINPUT_169289 ""))))
(assert T_2b)
(assert (= T_2c (not (= "" var_0xINPUT_169289))))
(assert T_2c)
(assert (= T_2d (= var_0xINPUT_169289 "")))
(assert (= T_2e (not T_2d)))
(assert T_2e)
(assert (= T_2f (not (= "" var_0xINPUT_169289))))
(assert T_2f)
(assert (= T_30 (not (= "" var_0xINPUT_169289))))
(assert T_30)
(assert (= T_31 (not (= var_0xINPUT_169289 ""))))
(assert T_31)
(assert (= T_32 (= var_0xINPUT_169289 "")))
(assert (= T_33 (not T_32)))
(assert T_33)
(assert (= T_34 (not (= "" var_0xINPUT_169289))))
(assert T_34)
(assert (= T_35 (not (= "" var_0xINPUT_169289))))
(assert T_35)
(assert (= T_36 (not (= var_0xINPUT_169289 ""))))
(assert T_36)
(assert (= T_37 (= var_0xINPUT_169289 "")))
(assert (= T_38 (not T_37)))
(assert T_38)
(assert (= T_39 (not (= "" var_0xINPUT_169289))))
(assert T_39)
(assert (= T_3a (not (= "" var_0xINPUT_169289))))
(assert T_3a)
(assert (= T_3b (not (= var_0xINPUT_169289 ""))))
(assert T_3b)
(assert (= T_3c (= var_0xINPUT_169289 "")))
(assert (= T_3d (not T_3c)))
(assert T_3d)
(assert (= T_3e (not (= "" var_0xINPUT_169289))))
(assert T_3e)
(assert (= T_3f (not (= "" var_0xINPUT_169289))))
(assert T_3f)
(assert (= T_40 (not (= var_0xINPUT_169289 ""))))
(assert T_40)
(assert (= T_41 (= var_0xINPUT_169289 "")))
(assert (= T_42 (not T_41)))
(assert T_42)
(assert (= T_43 (not (= "" var_0xINPUT_169289))))
(assert T_43)
(assert (= T_44 (not (= "" var_0xINPUT_169289))))
(assert T_44)
(assert (= T_45 (not (= var_0xINPUT_169289 ""))))
(assert T_45)
(assert (= T_46 (= var_0xINPUT_169289 "")))
(assert (= T_47 (not T_46)))
(assert T_47)
(assert (= T_48 (not (= "" var_0xINPUT_169289))))
(assert T_48)
(assert (= T_49 (not (= "" var_0xINPUT_169289))))
(assert T_49)
(assert (= T_4a (not (= var_0xINPUT_169289 ""))))
(assert T_4a)
(assert (= T_4b (= var_0xINPUT_169289 "")))
(assert (= T_4c (not T_4b)))
(assert T_4c)
(assert (= T_4d (not (= "" var_0xINPUT_169289))))
(assert T_4d)
(assert (= T_4e (not (= "6JX7G3VKFq" var_0xINPUT_169289))))
(assert T_4e)
(assert (= T_4f (not (= var_0xINPUT_169289 "6JX7G3VKFq"))))
(assert T_4f)
(assert (= T_50 (= var_0xINPUT_169289 "")))
(assert (= T_51 (not T_50)))
(assert T_51)
(assert (= T_52 (not (= "" var_0xINPUT_169289))))
(assert T_52)
(assert (= T_53 (not (= "" var_0xINPUT_169289))))
(assert T_53)
(assert (= T_54 (not (= var_0xINPUT_169289 ""))))
(assert T_54)
(assert (= T_55 (= var_0xINPUT_169289 "")))
(assert (= T_56 (not T_55)))
(assert T_56)
(assert (= T_57 (not (= "" var_0xINPUT_169289))))
(assert T_57)
(assert (= T_58 (not (= "" var_0xINPUT_169289))))
(assert T_58)
(assert (= T_59 (not (= var_0xINPUT_169289 ""))))
(assert T_59)
(assert (= T_5a (= var_0xINPUT_169289 "")))
(assert (= T_5b (not T_5a)))
(assert T_5b)
(assert (= T_5c (not (= "" var_0xINPUT_169289))))
(assert T_5c)
(assert (= T_5d (not (= "6JX7G3VKFq" var_0xINPUT_169289))))
(assert T_5d)
(assert (= T_5e (not (= var_0xINPUT_169289 "6JX7G3VKFq"))))
(assert T_5e)
(assert (= T_5f (= var_0xINPUT_169289 "")))
(assert (= T_60 (not T_5f)))
(assert T_60)
(assert (= T_61 (not (= "" var_0xINPUT_169289))))
(assert T_61)
(assert (= T_62 (not (= "" var_0xINPUT_169289))))
(assert T_62)
(assert (= T_63 (not (= var_0xINPUT_169289 ""))))
(assert T_63)
(assert (= T_64 (= var_0xINPUT_169289 "")))
(assert (= T_65 (not T_64)))
(assert T_65)
(assert (= T_66 (not (= "" var_0xINPUT_169289))))
(assert T_66)
(assert (= T_67 (not (= "" var_0xINPUT_169289))))
(assert T_67)
(assert (= T_68 (not (= var_0xINPUT_169289 ""))))
(assert T_68)
(assert (= T_69 (= var_0xINPUT_169289 "")))
(assert (= T_6a (not T_69)))
(assert T_6a)
(assert (= T_6b (not (= "" var_0xINPUT_169289))))
(assert T_6b)
(assert (= T_6c (not (= var_0xINPUT_169289 ""))))
(assert T_6c)
(assert (= T_6d (not (= "" var_0xINPUT_169289))))
(assert T_6d)
(assert (= T_6e (= var_0xINPUT_169289 "")))
(assert (= T_6f (not T_6e)))
(assert T_6f)
(assert (= T_70 (not (= var_0xINPUT_169289 ""))))
(assert T_70)
(check-sat)
